(set-logic ALL)
(set-option :produce-models true)
(define-fun-rec str.toLower ((x String)) String
  (ite (= x "")
      ""
      (let ((Head (str.at x 0)))
        (str.++ 
          (ite (and (<= 65 (str.to_code Head)) 
                     (<= (str.to_code Head) 90))
               (str.from_code (+ (str.to_code Head) 32))
               Head)
          (str.toLower (str.substr x 1 (- (str.len x) 1)))))))
(declare-fun sym209 () String)
(declare-fun sym816 () String)
(declare-fun sym2319 () String)
(declare-fun sym551 () String)
(declare-fun sym2953 () String)
(declare-fun sym1457 () String)
(declare-fun sym2535 () String)
(declare-fun sym2107 () String)
(declare-fun sym4328 () String)
(declare-fun sym3799 () String)
(declare-fun sym1673 () String)
(declare-fun sym3169 () String)
(declare-fun sym2751 () String)
(declare-fun sym3587 () String)
(declare-fun sym1894 () String)
(declare-fun sym4015 () String)
(declare-fun sym3385 () String)
(declare-fun sym1241 () String)
(declare-fun sym1032 () String)
(declare-fun sym4231 () String)
(declare-fun sym161 () String)

(assert (= (str.toLower (str.substr sym816  0 1))"g" ))
(assert (not (= (str.toLower (str.substr sym1673  0 1))"l" )))
(assert (= "" "" ))
(assert (= (str.toLower (str.substr sym4231  0 1))"g" ))
(assert (not (= (str.toLower (str.substr sym1673  0 1))"k" )))
(assert (= "y" "y" ))
(assert (not (= "" sym3587 )))
(assert (not (= (str.toLower (str.substr sym2107  0 1))"p" )))
(assert (= (str.toLower (str.substr sym1673  0 1))"h" ))
(assert (not (= (str.toLower (str.substr sym3169  0 1))"q" )))
(assert (not (= (str.toLower (str.substr sym3587  0 1))"p" )))
(assert (= "" sym161 ))
(assert (not (= (str.toLower (str.substr sym551  0 1))"k" )))
(assert (not (= (str.toLower (str.substr sym1673  0 1))"q" )))
(assert (not (= (str.toLower (str.substr sym2751  0 1))"q" )))
(assert (not (= "" sym551 )))
(assert (not (= "" "n" )))
(assert (not (= (str.toLower (str.substr sym3799  0 1))"k" )))
(assert (= (str.toLower (str.substr sym2107  0 1))"l" ))
(assert (not (= "" (str.toLower (str.substr sym4328  0 1)))))
(assert (not (= "" sym3385 )))
(assert (not (= "" "q" )))
(assert (not (= (str.toLower (str.substr sym1241  0 1))"p" )))
(assert (not (= "" sym2751 )))
(assert (not (= "" sym1241 )))
(assert (not (= (str.toLower (str.substr sym1032  0 1))"q" )))
(assert (not (= (str.toLower (str.substr sym2953  0 1))"q" )))
(assert (not (= (str.toLower (str.substr sym816  0 1))"q" )))
(assert (not (= (str.toLower (str.substr sym4328  0 1))"y" )))
(assert (not (= (str.toLower (str.substr sym2319  0 1))"p" )))
(assert (not (= (str.toLower (str.substr sym2319  0 1))"q" )))
(assert (not (= "" sym3169 )))
(assert (not (= "" sym3799 )))
(assert (not (= (str.toLower (str.substr sym816  0 1))"k" )))
(assert (not (= (str.toLower (str.substr sym3385  0 1))"p" )))
(assert (not (= (str.toLower (str.substr sym4231  0 1))"q" )))
(assert (not (= (str.toLower (str.substr sym3385  0 1))"k" )))
(assert (not (= (str.toLower (str.substr sym4231  0 1))"p" )))
(assert (not (= (str.toLower (str.substr sym3799  0 1))"p" )))
(assert (not (= "" sym2953 )))
(assert (not (= "y" "n" )))
(assert (not (= (str.toLower (str.substr sym1894  0 1))"q" )))
(assert (not (= "" sym1673 )))
(assert (= (str.toLower (str.substr sym1457  0 1))"g" ))
(assert (not (= (str.toLower (str.substr sym1032  0 1))"p" )))
(assert (not (= (str.toLower (str.substr sym3169  0 1))"p" )))
(assert (not (= (str.toLower (str.substr sym1894  0 1))"k" )))
(assert (not (= "" sym1457 )))
(assert (not (= (str.toLower (str.substr sym1457  0 1))"k" )))
(assert (not (= (str.toLower (str.substr sym1032  0 1))"k" )))
(assert (not (= (str.toLower (str.substr sym1241  0 1))"k" )))
(assert (not (= (str.toLower (str.substr sym4015  0 1))"q" )))
(assert (not (= (str.toLower (str.substr sym3169  0 1))"k" )))
(assert (not (= "" sym2319 )))
(assert (not (= (str.toLower (str.substr sym551  0 1))"q" )))
(assert (= (str.toLower (str.substr sym1032  0 1))"g" ))
(assert (not (= (str.toLower (str.substr sym2953  0 1))"p" )))
(assert (= (str.toLower (str.substr sym3385  0 1))"g" ))
(assert (not (= (str.toLower (str.substr sym1673  0 1))"r" )))
(assert (not (= (str.toLower (str.substr sym2107  0 1))"r" )))
(assert (not (= (str.toLower (str.substr sym1894  0 1))"p" )))
(assert (not (= (str.toLower (str.substr sym3587  0 1))"k" )))
(assert (not (= (str.toLower (str.substr sym2751  0 1))"k" )))
(assert (not (= "" (str.toLower (str.substr sym209  0 1)))))
(assert (not (= (str.toLower (str.substr sym3799  0 1))"q" )))
(assert (not (= "" sym4231 )))
(assert (not (= (str.toLower (str.substr sym1241  0 1))"q" )))
(assert (not (= "" sym1032 )))
(assert (not (= (str.toLower (str.substr sym816  0 1))"p" )))
(assert (not (= (str.toLower (str.substr sym551  0 1))"p" )))
(assert (= (str.toLower (str.substr sym3799  0 1))"g" ))
(assert (= (str.toLower (str.substr sym1894  0 1))"g" ))
(assert (not (= (str.toLower (str.substr sym2535  0 1))"q" )))
(assert (not (= (str.toLower (str.substr sym2107  0 1))"k" )))
(assert (= (str.toLower (str.substr sym2535  0 1))"g" ))
(assert (not (= "n" "y" )))
(assert (= (str.toLower (str.substr sym4015  0 1))"g" ))
(assert (not (= (str.toLower (str.substr sym4015  0 1))"k" )))
(assert (not (= (str.toLower (str.substr sym2319  0 1))"k" )))
(assert (not (= (str.toLower (str.substr sym3587  0 1))"r" )))
(assert (= (str.toLower (str.substr sym1241  0 1))"g" ))
(assert (not (= (str.toLower (str.substr sym2751  0 1))"p" )))
(assert (not (= "" sym2535 )))
(assert (not (= "" sym4328 )))
(assert (not (= (str.toLower (str.substr sym3587  0 1))"g" )))
(assert (not (= (str.toLower (str.substr sym4015  0 1))"p" )))
(assert (not (= (str.toLower (str.substr sym4231  0 1))"k" )))
(assert (= (str.toLower (str.substr sym3587  0 1))"l" ))
(assert (not (= "" sym209 )))
(assert (not (= "" "y" )))
(assert (not (= (str.toLower (str.substr sym2953  0 1))"k" )))
(assert (not (= "" sym1894 )))
(assert (not (= (str.toLower (str.substr sym3385  0 1))"q" )))
(assert (= (str.toLower (str.substr sym209  0 1))"y" ))
(assert (not (= "" sym4015 )))
(assert (= (str.toLower (str.substr sym2751  0 1))"g" ))
(assert (not (= (str.toLower (str.substr sym2535  0 1))"k" )))
(assert (not (= (str.toLower (str.substr sym3587  0 1))"q" )))
(assert (not (= "" "y" )))
(assert (= (str.toLower (str.substr sym3169  0 1))"g" ))
(assert (= (str.toLower (str.substr sym2319  0 1))"g" ))
(assert (not (= (str.toLower (str.substr sym2107  0 1))"q" )))
(assert (not (= (str.toLower (str.substr sym1457  0 1))"q" )))
(assert (= (str.toLower (str.substr sym2953  0 1))"g" ))
(assert (not (= (str.toLower (str.substr sym1457  0 1))"p" )))
(assert (not (= (str.toLower (str.substr sym1673  0 1))"g" )))
(assert (not (= "" sym816 )))
(assert (= (str.toLower (str.substr sym551  0 1))"g" ))
(assert (not (= (str.toLower (str.substr sym2107  0 1))"g" )))
(assert (not (= (str.toLower (str.substr sym1673  0 1))"p" )))
(assert (not (= "" sym2107 )))
(assert (not (= (str.toLower (str.substr sym2535  0 1))"p" )))
(check-sat)
(get-model)
(exit)
